NAME          DCAP_3_3_2_500_SS330
ROWS
 N  OBJ
 L  CON1
 L  CON2
 L  CON3
 L  CON4
 L  CON5
 L  CON6
 L  CON7
 L  CON8
 L  CON9
 L  CON10
 L  CON11
 L  CON12
 E  CON13
 E  CON14
 E  CON15
 E  CON16
 E  CON17
 E  CON18
COLUMNS
    x[1,1]    OBJ       6.180167      CON1      1.000000    
    x[1,1]    CON7      -1.000000     CON8      -1.000000   
    x[1,2]    OBJ       5.039546      CON2      1.000000    
    x[1,2]    CON8      -1.000000   
    x[2,1]    OBJ       6.732585      CON3      1.000000    
    x[2,1]    CON9      -1.000000     CON10     -1.000000   
    x[2,2]    OBJ       7.443064      CON4      1.000000    
    x[2,2]    CON10     -1.000000   
    x[3,1]    OBJ       6.563535      CON5      1.000000    
    x[3,1]    CON11     -1.000000     CON12     -1.000000   
    x[3,2]    OBJ       6.054841      CON6      1.000000    
    x[3,2]    CON12     -1.000000   
    MARKER    'MARKER'                'INTORG'
    u[1,1]    OBJ       48.076654     CON1      -1.000000   
    u[1,2]    OBJ       49.466655     CON2      -1.000000   
    u[2,1]    OBJ       49.996186     CON3      -1.000000   
    u[2,2]    OBJ       32.230043     CON4      -1.000000   
    u[3,1]    OBJ       20.066487     CON5      -1.000000   
    u[3,2]    OBJ       27.484319     CON6      -1.000000   
    y[1,1,1]  OBJ       6.533280      CON7      1.289024    
    y[1,1,1]  CON13     1.000000    
    y[1,1,2]  OBJ       7.496467      CON8      1.017019    
    y[1,1,2]  CON14     1.000000    
    y[1,2,1]  OBJ       8.219280      CON7      0.515573    
    y[1,2,1]  CON15     1.000000    
    y[1,2,2]  OBJ       9.091630      CON8      0.841466    
    y[1,2,2]  CON16     1.000000    
    y[1,3,1]  OBJ       5.526450      CON7      1.421121    
    y[1,3,1]  CON17     1.000000    
    y[1,3,2]  OBJ       9.853875      CON8      1.480409    
    y[1,3,2]  CON18     1.000000    
    y[2,1,1]  OBJ       9.822064      CON9      1.289024    
    y[2,1,1]  CON13     1.000000    
    y[2,1,2]  OBJ       7.767187      CON10     1.017019    
    y[2,1,2]  CON14     1.000000    
    y[2,2,1]  OBJ       7.948040      CON9      0.515573    
    y[2,2,1]  CON15     1.000000    
    y[2,2,2]  OBJ       6.029764      CON10     0.841466    
    y[2,2,2]  CON16     1.000000    
    y[2,3,1]  OBJ       5.499401      CON9      1.421121    
    y[2,3,1]  CON17     1.000000    
    y[2,3,2]  OBJ       7.494376      CON10     1.480409    
    y[2,3,2]  CON18     1.000000    
    y[3,1,1]  OBJ       9.402865      CON11     1.289024    
    y[3,1,1]  CON13     1.000000    
    y[3,1,2]  OBJ       8.519826      CON12     1.017019    
    y[3,1,2]  CON14     1.000000    
    y[3,2,1]  OBJ       6.774042      CON11     0.515573    
    y[3,2,1]  CON15     1.000000    
    y[3,2,2]  OBJ       8.224557      CON12     0.841466    
    y[3,2,2]  CON16     1.000000    
    y[3,3,1]  OBJ       8.642134      CON11     1.421121    
    y[3,3,1]  CON17     1.000000    
    y[3,3,2]  OBJ       6.276307      CON12     1.480409    
    y[3,3,2]  CON18     1.000000    
    z[1,1]    OBJ       552.192978    CON13     1.000000    
    z[1,2]    OBJ       841.827764    CON14     1.000000    
    z[2,1]    OBJ       792.434570    CON15     1.000000    
    z[2,2]    OBJ       864.839558    CON16     1.000000    
    z[3,1]    OBJ       639.851973    CON17     1.000000    
    z[3,2]    OBJ       845.264884    CON18     1.000000    
    MARKER    'MARKER'                 'INTEND'
RHS
    RHS       CON1      -0.000000     CON2      -0.000000   
    RHS       CON3      -0.000000     CON4      -0.000000   
    RHS       CON5      -0.000000     CON6      -0.000000   
    RHS       CON7      -0.000000     CON8      -0.000000   
    RHS       CON9      -0.000000     CON10     -0.000000   
    RHS       CON11     -0.000000     CON12     -0.000000   
    RHS       CON13     1.000000      CON14     1.000000    
    RHS       CON15     1.000000      CON16     1.000000    
    RHS       CON17     1.000000      CON18     1.000000    
BOUNDS
 BV BOUND     u[1,1]  
 BV BOUND     u[1,2]  
 BV BOUND     u[2,1]  
 BV BOUND     u[2,2]  
 BV BOUND     u[3,1]  
 BV BOUND     u[3,2]  
 BV BOUND     y[1,1,1]
 BV BOUND     y[1,1,2]
 BV BOUND     y[1,2,1]
 BV BOUND     y[1,2,2]
 BV BOUND     y[1,3,1]
 BV BOUND     y[1,3,2]
 BV BOUND     y[2,1,1]
 BV BOUND     y[2,1,2]
 BV BOUND     y[2,2,1]
 BV BOUND     y[2,2,2]
 BV BOUND     y[2,3,1]
 BV BOUND     y[2,3,2]
 BV BOUND     y[3,1,1]
 BV BOUND     y[3,1,2]
 BV BOUND     y[3,2,1]
 BV BOUND     y[3,2,2]
 BV BOUND     y[3,3,1]
 BV BOUND     y[3,3,2]
 BV BOUND     z[1,1]  
 BV BOUND     z[1,2]  
 BV BOUND     z[2,1]  
 BV BOUND     z[2,2]  
 BV BOUND     z[3,1]  
 BV BOUND     z[3,2]  
ENDATA
